21° run output:
{
    "Function": "kroA400.tsp",
    "Problem dimension": [
        173,
        266,
        351,
        269,
        201,
        194,
        67,
        386,
        144,
        243,
        259,
        156,
        133,
        46,
        30,
        312,
        285,
        192,
        127,
        66,
        247,
        313,
        342,
        191,
        20,
        330,
        337,
        5,
        184,
        393,
        355,
        135,
        101,
        336,
        168,
        52,
        217,
        302,
        324,
        356,
        284,
        183,
        394,
        326,
        42,
        255,
        185,
        289,
        203,
        346,
        157,
        308,
        213,
        48,
        314,
        59,
        220,
        130,
        63,
        224,
        305,
        138,
        341,
        396,
        22,
        2,
        263,
        193,
        121,
        395,
        232,
        398,
        304,
        246,
        359,
        86,
        196,
        75,
        111,
        333,
        240,
        383,
        100,
        340,
        229,
        26,
        131,
        81,
        270,
        205,
        13,
        294,
        291,
        98,
        329,
        40,
        374,
        70,
        228,
        265,
        344,
        274,
        95,
        164,
        11,
        87,
        208,
        253,
        89,
        114,
        202,
        371,
        353,
        64,
        149,
        181,
        275,
        65,
        186,
        54,
        321,
        385,
        373,
        200,
        162,
        109,
        319,
        273,
        166,
        244,
        295,
        129,
        345,
        226,
        257,
        249,
        279,
        250,
        258,
        389,
        16,
        190,
        327,
        252,
        315,
        155,
        32,
        50,
        364,
        31,
        110,
        370,
        174,
        93,
        27,
        376,
        147,
        140,
        299,
        227,
        104,
        18,
        323,
        218,
        55,
        307,
        37,
        318,
        358,
        256,
        197,
        287,
        198,
        360,
        44,
        357,
        286,
        248,
        231,
        56,
        60,
        368,
        290,
        242,
        28,
        146,
        120,
        375,
        47,
        233,
        380,
        123,
        262,
        83,
        384,
        211,
        238,
        206,
        94,
        19,
        29,
        97,
        225,
        237,
        45,
        9,
        139,
        245,
        378,
        272,
        348,
        369,
        221,
        99,
        107,
        367,
        136,
        199,
        317,
        251,
        204,
        72,
        311,
        216,
        142,
        0,
        207,
        14,
        158,
        21,
        332,
        178,
        169,
        298,
        35,
        76,
        209,
        264,
        15,
        96,
        25,
        23,
        267,
        108,
        354,
        309,
        1,
        172,
        88,
        126,
        51,
        125,
        49,
        239,
        102,
        161,
        180,
        74,
        297,
        148,
        39,
        397,
        320,
        116,
        141,
        362,
        41,
        352,
        222,
        283,
        188,
        187,
        381,
        379,
        10,
        170,
        7,
        143,
        260,
        271,
        372,
        68,
        106,
        268,
        223,
        33,
        278,
        92,
        176,
        150,
        195,
        38,
        153,
        91,
        105,
        347,
        124,
        17,
        282,
        160,
        128,
        316,
        71,
        293,
        235,
        24,
        171,
        377,
        57,
        334,
        281,
        210,
        328,
        388,
        350,
        53,
        61,
        151,
        301,
        288,
        361,
        77,
        73,
        296,
        261,
        280,
        132,
        338,
        343,
        215,
        84,
        159,
        277,
        43,
        152,
        212,
        79,
        189,
        115,
        34,
        366,
        122,
        78,
        62,
        390,
        145,
        175,
        85,
        82,
        391,
        300,
        36,
        399,
        58,
        234,
        69,
        219,
        382,
        335,
        112,
        349,
        154,
        113,
        177,
        365,
        12,
        241,
        103,
        90,
        117,
        339,
        134,
        310,
        119,
        306,
        179,
        163,
        254,
        182,
        137,
        325,
        3,
        303,
        236,
        276,
        292,
        363,
        80,
        230,
        8,
        6,
        331,
        4,
        214,
        167,
        392,
        118,
        322,
        387,
        165
    ],
    "Global Optimum": 0,
    "Algorithm": "Genetic algorithm",
    "Parameters": {
        "population": 30,
        "offspring": 30,
        "mutation probability": 0.0025,
        "crossover probability": 0.9
    },
    "Fitness": 511407,
    "Solution": [
        173,
        266,
        351,
        269,
        201,
        194,
        67,
        386,
        144,
        243,
        259,
        156,
        133,
        46,
        30,
        312,
        285,
        192,
        127,
        66,
        247,
        313,
        342,
        191,
        20,
        330,
        337,
        5,
        184,
        393,
        355,
        135,
        101,
        336,
        168,
        52,
        217,
        302,
        324,
        356,
        284,
        183,
        394,
        326,
        42,
        255,
        185,
        289,
        203,
        346,
        157,
        308,
        213,
        48,
        314,
        59,
        220,
        130,
        63,
        224,
        305,
        138,
        341,
        396,
        22,
        2,
        263,
        193,
        121,
        395,
        232,
        398,
        304,
        246,
        359,
        86,
        196,
        75,
        111,
        333,
        240,
        383,
        100,
        340,
        229,
        26,
        131,
        81,
        270,
        205,
        13,
        294,
        291,
        98,
        329,
        40,
        374,
        70,
        228,
        265,
        344,
        274,
        95,
        164,
        11,
        87,
        208,
        253,
        89,
        114,
        202,
        371,
        353,
        64,
        149,
        181,
        275,
        65,
        186,
        54,
        321,
        385,
        373,
        200,
        162,
        109,
        319,
        273,
        166,
        244,
        295,
        129,
        345,
        226,
        257,
        249,
        279,
        250,
        258,
        389,
        16,
        190,
        327,
        252,
        315,
        155,
        32,
        50,
        364,
        31,
        110,
        370,
        174,
        93,
        27,
        376,
        147,
        140,
        299,
        227,
        104,
        18,
        323,
        218,
        55,
        307,
        37,
        318,
        358,
        256,
        197,
        287,
        198,
        360,
        44,
        357,
        286,
        248,
        231,
        56,
        60,
        368,
        290,
        242,
        28,
        146,
        120,
        375,
        47,
        233,
        380,
        123,
        262,
        83,
        384,
        211,
        238,
        206,
        94,
        19,
        29,
        97,
        225,
        237,
        45,
        9,
        139,
        245,
        378,
        272,
        348,
        369,
        221,
        99,
        107,
        367,
        136,
        199,
        317,
        251,
        204,
        72,
        311,
        216,
        142,
        0,
        207,
        14,
        158,
        21,
        332,
        178,
        169,
        298,
        35,
        76,
        209,
        264,
        15,
        96,
        25,
        23,
        267,
        108,
        354,
        309,
        1,
        172,
        88,
        126,
        51,
        125,
        49,
        239,
        102,
        161,
        180,
        74,
        297,
        148,
        39,
        397,
        320,
        116,
        141,
        362,
        41,
        352,
        222,
        283,
        188,
        187,
        381,
        379,
        10,
        170,
        7,
        143,
        260,
        271,
        372,
        68,
        106,
        268,
        223,
        33,
        278,
        92,
        176,
        150,
        195,
        38,
        153,
        91,
        105,
        347,
        124,
        17,
        282,
        160,
        128,
        316,
        71,
        293,
        235,
        24,
        171,
        377,
        57,
        334,
        281,
        210,
        328,
        388,
        350,
        53,
        61,
        151,
        301,
        288,
        361,
        77,
        73,
        296,
        261,
        280,
        132,
        338,
        343,
        215,
        84,
        159,
        277,
        43,
        152,
        212,
        79,
        189,
        115,
        34,
        366,
        122,
        78,
        62,
        390,
        145,
        175,
        85,
        82,
        391,
        300,
        36,
        399,
        58,
        234,
        69,
        219,
        382,
        335,
        112,
        349,
        154,
        113,
        177,
        365,
        12,
        241,
        103,
        90,
        117,
        339,
        134,
        310,
        119,
        306,
        179,
        163,
        254,
        182,
        137,
        325,
        3,
        303,
        236,
        276,
        292,
        363,
        80,
        230,
        8,
        6,
        331,
        4,
        214,
        167,
        392,
        118,
        322,
        387,
        165
    ],
    "Nb of functions evaluations": 50010,
    "Computational time in seconds": 240.79889965057373,
    "Stopping criterion in evaluations": 50000
}